
Gurobi 10.0.0 (linux64, C++) logging started Tue Dec 13 12:09:40 2022

Set parameter Username
Set parameter TimeLimit to value 7000
Set parameter LogFile to value "./log/milp-500b-7000s-verbose.log"
Academic license - for non-commercial use only - expires 2023-12-06
Gurobi Optimizer version 10.0.0 build v10.0.0rc2 (linux64)

CPU model: 12th Gen Intel(R) Core(TM) i9-12900, instruction set [SSE2|AVX|AVX2]
Thread count: 24 physical cores, 24 logical processors, using up to 24 threads

Optimize a model with 501000 rows, 251001 columns and 2489500 nonzeros
Model fingerprint: 0x9aa3fdb7
Variable types: 0 continuous, 251001 integer (250000 binary)
Coefficient statistics:
  Matrix range     [1e+00, 2e+04]
  Objective range  [1e+00, 1e+00]
  Bounds range     [1e+00, 1e+00]
  RHS range        [1e+00, 3e+04]
Presolve removed 1009 rows and 9 columns
Presolve time: 1.92s
Presolved: 499991 rows, 250992 columns, 2488491 nonzeros
Variable types: 0 continuous, 250992 integer (249991 binary)

Deterministic concurrent LP optimizer: primal simplex, dual simplex, and barrier
Showing barrier log only...

Root barrier log...

Ordering time: 0.03s

Barrier statistics:
 Dense cols : 1492
 AA' NZ     : 2.239e+06
 Factor NZ  : 5.341e+06 (roughly 350 MB of memory)
 Factor Ops : 1.145e+09 (less than 1 second per iteration)
 Threads    : 21

                  Objective                Residual
Iter       Primal          Dual         Primal    Dual     Compl     Time
   0   4.04023315e+03 -6.39037066e+06  1.31e+03 0.00e+00  7.25e+01    15s
   1   7.84003627e+03 -7.25568463e+06  7.92e+02 2.25e-02  3.76e+01    15s
   2   6.79734200e+03 -5.78219906e+06  4.86e+02 1.20e-13  1.73e+01    15s
   3   1.56499486e+03 -2.50069627e+06  9.20e+01 4.28e-12  3.50e+00    16s
   4   8.08103484e+02 -3.00156314e+05  4.65e+01 4.77e-12  3.80e-01    16s
   5   3.63787066e+02 -1.75253122e+04  2.01e+01 3.15e-11  2.44e-02    16s
   6   1.57897806e+02 -8.02017437e+03  6.97e+00 1.33e-12  9.98e-03    16s
   7   9.51709832e+01 -6.97771652e+03  2.81e+00 1.22e-12  7.75e-03    16s
   8   9.71008291e+01 -1.78693271e+02  3.89e-01 2.94e-11  3.22e-04    16s
   9   9.50030907e+01  8.32365427e+01  0.00e+00 5.10e-12  1.17e-05    17s
  10   9.50000031e+01  9.49882370e+01  0.00e+00 1.51e-14  1.17e-08    17s
  11   9.50000000e+01  9.50000000e+01  0.00e+00 1.33e-15  1.19e-14    17s

Barrier solved model in 11 iterations and 17.07 seconds (20.07 work units)
Optimal objective 9.50000000e+01


Root crossover log...

       1 DPushes remaining with DInf 0.0000000e+00                17s

  124750 PPushes remaining with PInf 0.0000000e+00                18s
       0 PPushes remaining with PInf 0.0000000e+00                18s

  Push phase complete: Pinf 0.0000000e+00, Dinf 0.0000000e+00     18s


Root simplex log...

Iteration    Objective       Primal Inf.    Dual Inf.      Time
  124753    9.5000000e+01   0.000000e+00   0.000000e+00     18s
  124753    9.5000000e+01   0.000000e+00   0.000000e+00     18s
Concurrent spin time: 0.06s

Solved with barrier

Root relaxation: objective 9.500000e+01, 124753 iterations, 4.10 seconds (3.69 work units)

    Nodes    |    Current Node    |     Objective Bounds      |     Work
 Expl Unexpl |  Obj  Depth IntInf | Incumbent    BestBd   Gap | It/Node Time

     0     0   95.00000    0 124750          -   95.00000      -     -   40s
     0     0   95.00000    0 113480          -   95.00000      -     -   62s
     0     0   95.00000    0 82075          -   95.00000      -     -   92s
     0     0   95.00000    0 71921          -   95.00000      -     -  154s
     0     0   95.00000    0 60945          -   95.00000      -     -  255s
     0     0   95.00000    0 61217          -   95.00000      -     -  358s
     0     0   95.00000    0 46804          -   95.00000      -     -  460s
     0     0   95.00000    0 52800          -   95.00000      -     -  509s
     0     0   95.00000    0 44065          -   95.00000      -     -  587s
     0     0   95.00000    0 51464          -   95.00000      -     -  635s
     0     0   95.00000    0 54712          -   95.00000      -     -  766s
     0     0   95.00000    0 58560          -   95.00000      -     -  903s
     0     0   95.00000    0 54646          -   95.00000      -     - 1178s
     0     0   95.00000    0 48143          -   95.00000      -     - 1282s
     0     0   95.00000    0 49492          -   95.00000      -     - 1579s
     0     0   95.00000    0 46140          -   95.00000      -     - 1686s
     0     0   95.00000    0 44992          -   95.00000      -     - 1975s
     0     0   95.00000    0 49664          -   95.00000      -     - 2136s
     0     0   95.00000    0 49664          -   95.00000      -     - 2233s
     0     2   95.00000    0 49664          -   95.00000      -     - 2452s
     1     4   95.00000    1 47661          -   95.00000      - 149515 2517s
     3     8   95.00000    2 51255          -   95.00000      - 117573 2698s
     7    16   95.00000    3 53175          -   95.00000      - 128792 3143s
    15    32   95.00000    4 49998          -   95.00000      - 146180 4532s
    31    56   95.00000    5 48467          -   95.00000      - 163255 6489s

Cutting planes:
  Learned: 65
  Gomory: 10
  Implied bound: 5
  MIR: 111773
  StrongCG: 2061
  Zero half: 424
  RLT: 1355
  Relax-and-lift: 1

Explored 55 nodes (9504910 simplex iterations) in 7000.30 seconds (12415.21 work units)
Thread count was 24 (of 24 available processors)

Solution count 0

Time limit reached
Best objective -, best bound 9.500000000001e+01, gap -
